(declare-fun bvlambda_28_ () (_ BitVec 3))
(declare-fun bvlambda_29_ ()Bool         )
(declare-fun a119 () (Array (_ BitVec 1) (_ BitVec 2)))
(assert
(let (($e16 (_ bv0 2)))
(let (($e29 (_ bv0 9)))
(let (($e42 (_ bv0 10)))
(let (($e271 (store a119 bvlambda_29_ $e16 )))
(let (($e340 (select $e271 false               )))
(let (($e376 (   extract      bvlambda_28_)))
(let (($e378 (store a119 false $e16)))
(let (($e379 (select $e378 $e376)))
(let (($e414 (concat        $e42 true  )))
(let (($e417 (concat        $e29  $e340)))
(let (($e419      (bvult $e417 $e414)         ))
(let (($e436 (select $e378 true      )))
(let (($e437      (bvult $e436 $e379)         ))
             (bvand        $e437         $e419 )
                                                                                                                                                                                                                                                                                                                                                                                                                                                                                                                                                                                                                                                                                                                                                                                                                                                                                                                                                                                                                                                                                                                                                                                                                                                                                                                                                                             ))                ) )  )                                  )) )                                   )                                                                    )                                                                                                                                                                                       )            )            )               )
